c WARNING: for repeatability, setting FPU to use double precision
d VARIABLES            201564       
d CONSTRAINTS          921707       
c ============================[ Problem Statistics ]=============================
c |                                                                             |
c |  Number of variables:        201564                                         |
c |  Number of clauses:          921707                                         |
c |  Parse time:                   0.15 s                                       |
c |                                                                             |
c ============================[ Search Statistics ]==============================
c | Conflicts |          ORIGINAL         |          LEARNT          | Progress |
c |           |    Vars  Clauses Literals |    Limit  Clauses Lit/Cl |          |
c ===============================================================================
c |       100 |  177998   854619  2065578 |   313360      100     15 | 11.692 % |
c |       250 |  177998   854619  2065578 |   344696      250     30 | 11.692 % |
c |       475 |  177998   854619  2065578 |   379165      475     43 | 11.692 % |
c |       812 |  177998   854619  2065578 |   417082      812     49 | 11.692 % |
c |      1318 |  177998   854619  2065578 |   458790     1318     84 | 11.692 % |
c |      2077 |  177998   854619  2065578 |   504669     2077     90 | 11.692 % |
c |      3216 |  177998   854619  2065578 |   555136     3216    108 | 11.692 % |
c |      4924 |  177998   854619  2065578 |   610650     4924     94 | 11.692 % |
c |      7486 |  177998   854619  2065578 |   671715     7486    100 | 11.692 % |
c |     11330 |  177998   854619  2065578 |   738887    11330    105 | 11.692 % |
c |     17096 |  177998   854619  2065578 |   812775    17096    128 | 11.692 % |
c |     25745 |  177998   854619  2065578 |   894053    25745    120 | 11.692 % |
c |     38719 |  177998   854619  2065578 |   983458    38719    142 | 11.692 % |
c ===============================================================================
c restarts              : 158
c conflicts             : 52552          (2061 /sec)
c decisions             : 309445         (0.00 % random) (12138 /sec)
c propagations          : 124368322      (4878415 /sec)
c conflict literals     : 7886791        (12.10 % deleted)
d RESTARTS             158
d FAILURES             52552        
d NODES                309445       
d BACKTRACKS           309445       
d PROPAGATIONS         124368322    
d NOGOODSIZE           150.08 
d MEMORY               107.00 
d TIME                 25.4936 

s SATISFIABLE
